% From JaCoP's nonogramRepository/data087.nin
 rows = 25;
 row_rule_len = 5;
 row_rules = array2d(1..rows, 1..row_rule_len, 
[
 0,0,0,0,3,
 0,0,0,1,5,
 0,0,0,2,6,
 0,0,0,3,5,
 0,0,2,1,3,
 0,0,2,1,3,
 0,2,1,5,1,
 0,2,1,6,2,
 0,2,1,7,2,
 0,2,1,9,1,
 0,2,1,10,1,
 0,0,3,6,9,
 0,0,2,6,8,
 0,0,0,13,8,
 0,1,6,1,9,
 0,1,4,1,11,
 0,1,2,1,11,
 0,0,1,11,1,
 0,0,0,1,13,
 0,1,5,1,1,
 1,1,3,1,1,
 0,1,1,3,6,
 0,1,1,5,1,
 0,1,1,4,1,
 0,1,1,5,1
]);

 cols = 25;
 col_rule_len = 5;
 col_rules = array2d(1..cols, 1..col_rule_len, 
[
 0,0,0,5,1,
 0,0,0,7,12,
 0,0,0,2,3,
 0,0,0,2,5,
 0,0,2,1,3,
 0,0,0,8,4,
 0,0,0,0,5,
 0,0,0,0,5,
 0,0,0,0,4,
 0,0,0,0,3,
 0,0,0,1,14,
 0,0,3,5,3,
 5,6,1,8,1,
 0,0,0,11,10,
 0,0,0,12,11,
 0,0,3,14,3,
 0,0,0,0,19,
 0,0,0,12,1,
 0,0,0,11,1,
 0,0,0,10,1,
 0,0,0,9,1,
 0,0,0,6,7,
 0,0,0,0,11,
 0,0,0,0,2,
 0,0,0,0,2
]);

